letting n =  10
letting blocks =  [[1, 6], [1, 8], [1, 10], [2, 1], [2, 5], [2, 6], [2, 7], [2, 9], [3, 1], [3, 2], [3, 3], [3, 9], [4, 1], [4, 5], [5, 2], [5, 7], [5, 9], [6, 1], [6, 2], [6, 6], [6, 10], [7, 2], [7, 5], [7, 6], [8, 3], [8, 6], [8, 7], [8, 8], [8, 9], [9, 9], [10, 2], [10, 3], [10, 5], [10, 6], [10, 7], [10, 9]]
